(set-logic QF_S)
(declare-fun var0 () String)
(assert (RegexIn var0 (RegexConcat (RegexStar (RegexPlus (RegexPlus (RegexUnion (RegexStar (RegexPlus (Str2Reg "0"))) (RegexStar (RegexStar (Str2Reg "111"))))))) (RegexUnion (RegexUnion (RegexStar (RegexUnion (RegexStar (RegexPlus (Str2Reg "2"))) (RegexStar (RegexPlus (Str2Reg "33"))))) (RegexStar (RegexPlus (RegexUnion (RegexStar (Str2Reg "44")) (RegexStar (Str2Reg "55")))))) (RegexUnion (RegexPlus (RegexUnion (RegexUnion (RegexUnion (Str2Reg "66") (Str2Reg "7")) (RegexUnion (Str2Reg "888") (Str2Reg "999"))) (RegexUnion (RegexUnion (Str2Reg "aaa") (Str2Reg "bbb")) (RegexUnion (Str2Reg "cc") (Str2Reg "dd"))))) (RegexPlus (RegexPlus (RegexPlus (RegexUnion (Str2Reg "ee") (Str2Reg "f"))))))))))
(assert (<= 15 (Length var0)))
(check-sat)